p cnf 20 22
1 4 6 11 15 -16 17 -14 -12 -10 -5 0
-14 19 -18 -10 0
1 8 13 -19 15 -16 -12 -7 -2 0
3 -4 -2 0
17 -6 1 0
-16 1 20 9 -2 0
17 5 3 13 0
-16 17 -8 -4 -2 0
17 11 -4 13 0
9 11 -4 -2 0
1 4 6 9 -19 -13 -12 -5 0
17 -13 -12 -10 11 -20 -18 0
-6 3 0
-8 -12 -18 15 0
17 -7 -20 -19 15 0
-8 13 7 0
5 8 -18 14 -16 17 -11 -10 -7 -2 0
-6 11 15 0
3 7 0
-11 -8 -6 -20 -19 0
11 -12 5 0
-20 -4 13 0
